SDVRP instances/custom_instances/p03_12_splitx10_0.vrp
NAME:p03_12_splitx10_
BEST_KNOWN: 0
COMMENT: 0
DIMENSION: 475
CAPACITY: 2000
EDGE_WEIGHT_FORMAT: FUNCTION
EDGE_WEIGHT_TYPE: EXACT_2D
NODE_COORD_SECTION
1 0.00000 0.00000
2 -19 -18
3 -19 -18
4 -19 -18
5 -42 29
6 -42 29
7 -42 29
8 -42 29
9 -42 29
10 11 48
11 11 48
12 11 48
13 11 48
14 11 48
15 39 25
16 39 25
17 39 25
18 39 25
19 -10 16
20 -10 16
21 -10 16
22 22 5
23 22 5
24 22 5
25 -1 38
26 -1 38
27 -1 38
28 -1 38
29 -1 38
30 -1 38
31 -1 41
32 -1 41
33 -1 41
34 -1 41
35 -20 -40
36 -20 -40
37 -20 -40
38 -20 -40
39 -20 -40
40 -6 -44
41 -6 -44
42 -6 -44
43 -6 -44
44 -6 -44
45 -6 -44
46 24 -44
47 24 -44
48 24 -44
49 -25 26
50 -25 26
51 -25 26
52 8 -1
53 8 -1
54 8 -1
55 8 -1
56 8 -1
57 8 -1
58 37 45
59 37 45
60 37 45
61 37 45
62 37 45
63 37 45
64 36 45
65 36 45
66 36 45
67 36 45
68 36 45
69 36 45
70 -28 -11
71 -28 -11
72 -28 -11
73 -28 -11
74 -32 35
75 -32 35
76 -32 35
77 -32 35
78 -32 35
79 34 29
80 34 29
81 34 29
82 -45 -45
83 -45 -45
84 -45 -45
85 -45 -45
86 -45 -45
87 -45 -45
88 -22 -5
89 -22 -5
90 -22 -5
91 -22 -5
92 -22 -5
93 -22 -5
94 -7 -28
95 -7 -28
96 -7 -28
97 -7 -28
98 -7 -28
99 -7 -28
100 -30 6
101 -30 6
102 -30 6
103 -30 6
104 -30 6
105 -30 6
106 4 -40
107 4 -40
108 4 -40
109 4 -40
110 4 -40
111 4 -40
112 -40 -21
113 -40 -21
114 -40 -21
115 -40 -21
116 -40 -21
117 -3 -31
118 -3 -31
119 -3 -31
120 -3 -31
121 -3 -31
122 -3 -31
123 49 28
124 49 28
125 49 28
126 49 28
127 49 28
128 49 28
129 49 28
130 -15 -37
131 -15 -37
132 -15 -37
133 -15 -37
134 -15 -37
135 -15 -37
136 -15 -37
137 -28 1
138 -28 1
139 -28 1
140 -28 1
141 28 -11
142 28 -11
143 28 -11
144 28 -11
145 28 -11
146 -50 7
147 -50 7
148 -50 7
149 -21 26
150 -21 26
151 -21 26
152 -21 26
153 -21 26
154 -21 26
155 -21 26
156 1 -36
157 1 -36
158 1 -36
159 -17 -34
160 -17 -34
161 -17 -34
162 -27 10
163 -27 10
164 -27 10
165 46 46
166 46 46
167 46 46
168 46 46
169 35 25
170 35 25
171 35 25
172 35 25
173 35 25
174 35 25
175 35 25
176 -50 -36
177 -50 -36
178 -50 -36
179 -50 -36
180 -50 -36
181 25 11
182 25 11
183 25 11
184 25 11
185 25 11
186 27 9
187 27 9
188 27 9
189 27 9
190 27 9
191 -40 44
192 -40 44
193 -40 44
194 -34 39
195 -34 39
196 46 -48
197 46 -48
198 46 -48
199 46 -48
200 46 -48
201 -39 24
202 -39 24
203 -39 24
204 -39 24
205 -39 24
206 -39 24
207 -39 24
208 -39 24
209 -20 22
210 -20 22
211 -20 22
212 -20 22
213 -20 22
214 45 5
215 45 5
216 45 5
217 45 5
218 45 5
219 45 5
220 45 5
221 -45 13
222 -45 13
223 -45 13
224 -45 13
225 -45 13
226 38 25
227 38 25
228 38 25
229 38 25
230 -3 -3
231 -3 -3
232 -3 -3
233 -3 -3
234 -3 -3
235 -3 -3
236 -3 -3
237 19 -4
238 19 -4
239 19 -4
240 19 -4
241 22 -18
242 22 -18
243 22 -18
244 22 -18
245 22 -18
246 22 -18
247 22 -18
248 22 -18
249 -1 50
250 -1 50
251 -1 50
252 -1 50
253 -1 50
254 20 28
255 20 28
256 20 28
257 20 28
258 -14 28
259 -14 28
260 -14 28
261 -14 28
262 -14 28
263 -22 -15
264 -22 -15
265 -22 -15
266 -22 -15
267 -17 33
268 -17 33
269 -17 33
270 -17 33
271 -17 33
272 -17 33
273 -22 -8
274 -22 -8
275 -22 -8
276 -22 -8
277 -22 -8
278 -1 2
279 -1 2
280 -1 2
281 -1 2
282 -9 9
283 -9 9
284 -9 9
285 -9 9
286 -32 14
287 -32 14
288 -32 14
289 -32 14
290 1 -16
291 1 -16
292 1 -16
293 1 -16
294 1 -16
295 1 -16
296 40 -29
297 40 -29
298 40 -29
299 -45 36
300 -45 36
301 -45 36
302 -44 -21
303 -44 -21
304 25 -32
305 25 -32
306 25 -32
307 25 -32
308 25 -32
309 25 -32
310 25 -32
311 -6 50
312 -6 50
313 -6 50
314 -6 50
315 -6 50
316 -37 -47
317 -37 -47
318 -37 -47
319 -37 -47
320 -37 -47
321 -12 -28
322 -12 -28
323 -12 -28
324 -12 -28
325 -12 -28
326 -12 -28
327 -48 42
328 -48 42
329 -48 42
330 -48 42
331 -48 42
332 46 12
333 46 12
334 46 12
335 46 12
336 46 12
337 46 12
338 34 6
339 34 6
340 34 6
341 34 6
342 34 6
343 34 6
344 -9 29
345 -9 29
346 -9 29
347 -9 29
348 -13 31
349 -13 31
350 -13 31
351 -13 31
352 -13 31
353 40 -23
354 40 -23
355 40 -23
356 -45 -36
357 -45 -36
358 -45 -36
359 -45 -36
360 -45 -36
361 27 -4
362 27 -4
363 27 -4
364 44 -21
365 44 -21
366 44 -21
367 44 -21
368 44 -21
369 -1 -37
370 -1 -37
371 -1 -37
372 -1 -37
373 -13 -29
374 -13 -29
375 -13 -29
376 -13 -29
377 -13 -29
378 -13 38
379 -13 38
380 -13 38
381 17 -1
382 17 -1
383 17 -1
384 -39 -32
385 -39 -32
386 -39 -32
387 -39 -32
388 26 -46
389 26 -46
390 26 -46
391 26 -46
392 26 -46
393 26 -46
394 26 -46
395 -12 20
396 -12 20
397 -12 20
398 -12 20
399 -12 20
400 -12 20
401 -12 20
402 -12 20
403 42 -16
404 42 -16
405 42 -16
406 -44 -42
407 -44 -42
408 -44 -42
409 -32 1
410 -32 1
411 -32 1
412 -32 1
413 -32 1
414 -32 1
415 11 -6
416 11 -6
417 11 -6
418 11 -6
419 11 -6
420 -21 19
421 -21 19
422 -21 19
423 -21 19
424 -21 19
425 -21 19
426 -37 28
427 -37 28
428 -37 -1
429 -37 -1
430 -37 -1
431 -37 -1
432 -37 -1
433 -37 -1
434 -41 38
435 -41 38
436 -41 38
437 -41 38
438 -41 38
439 -41 38
440 24 44
441 24 44
442 24 44
443 24 44
444 24 44
445 24 44
446 -31 -10
447 -31 -10
448 -31 -10
449 -31 -10
450 -31 -10
451 -31 -10
452 48 36
453 48 36
454 48 36
455 48 36
456 -47 -32
457 -47 -32
458 48 -23
459 48 -23
460 48 -23
461 38 -4
462 38 -4
463 38 -4
464 38 -4
465 38 -4
466 46 -39
467 46 -39
468 49 -37
469 49 -37
470 49 -37
471 49 -37
472 49 -37
473 49 -37
474 46 -42
475 46 -42
DEMAND_SECTION
1 0
2 400
3 200
4 10
5 400
6 400
7 100
8 20
9 20
10 400
11 400
12 20
13 20
14 10
15 400
16 200
17 100
18 10
19 400
20 20
21 20
22 400
23 200
24 20
25 200
26 20
27 20
28 20
29 20
30 10
31 400
32 100
33 20
34 10
35 400
36 20
37 20
38 20
39 10
40 200
41 100
42 20
43 20
44 20
45 10
46 400
47 20
48 10
49 200
50 100
51 20
52 400
53 400
54 20
55 20
56 20
57 10
58 400
59 20
60 20
61 20
62 20
63 10
64 200
65 20
66 20
67 20
68 20
69 10
70 200
71 20
72 20
73 10
74 400
75 20
76 20
77 20
78 10
79 400
80 200
81 10
82 400
83 200
84 100
85 20
86 20
87 10
88 400
89 100
90 20
91 20
92 20
93 20
94 200
95 20
96 20
97 20
98 20
99 10
100 400
101 200
102 100
103 20
104 20
105 10
106 400
107 400
108 100
109 20
110 20
111 20
112 400
113 200
114 100
115 20
116 10
117 400
118 400
119 100
120 20
121 20
122 10
123 400
124 200
125 100
126 20
127 20
128 20
129 10
130 400
131 200
132 20
133 20
134 20
135 20
136 10
137 400
138 100
139 20
140 20
141 400
142 200
143 20
144 20
145 10
146 400
147 400
148 100
149 400
150 400
151 100
152 20
153 20
154 20
155 20
156 400
157 400
158 100
159 400
160 100
161 20
162 200
163 100
164 20
165 400
166 20
167 20
168 10
169 400
170 400
171 100
172 20
173 20
174 20
175 20
176 400
177 20
178 20
179 20
180 20
181 400
182 100
183 20
184 20
185 10
186 200
187 20
188 20
189 20
190 20
191 400
192 200
193 20
194 200
195 100
196 400
197 400
198 100
199 20
200 10
201 400
202 400
203 100
204 20
205 20
206 20
207 20
208 10
209 400
210 200
211 100
212 20
213 20
214 400
215 400
216 100
217 20
218 20
219 20
220 20
221 400
222 200
223 20
224 20
225 20
226 400
227 100
228 20
229 20
230 200
231 100
232 20
233 20
234 20
235 20
236 10
237 200
238 100
239 20
240 10
241 400
242 400
243 100
244 20
245 20
246 20
247 20
248 10
249 200
250 20
251 20
252 20
253 20
254 400
255 400
256 20
257 20
258 400
259 400
260 20
261 20
262 20
263 200
264 20
265 20
266 10
267 200
268 100
269 20
270 20
271 20
272 10
273 400
274 400
275 20
276 20
277 20
278 400
279 20
280 20
281 10
282 400
283 200
284 100
285 20
286 400
287 200
288 100
289 20
290 400
291 400
292 20
293 20
294 20
295 20
296 400
297 20
298 20
299 200
300 100
301 10
302 400
303 200
304 400
305 200
306 20
307 20
308 20
309 20
310 10
311 400
312 200
313 100
314 20
315 20
316 400
317 100
318 20
319 20
320 10
321 400
322 20
323 20
324 20
325 20
326 10
327 200
328 20
329 20
330 20
331 20
332 400
333 400
334 100
335 20
336 20
337 10
338 400
339 400
340 20
341 20
342 20
343 20
344 400
345 200
346 20
347 10
348 400
349 100
350 20
351 20
352 20
353 400
354 100
355 20
356 400
357 200
358 20
359 20
360 20
361 400
362 400
363 100
364 400
365 200
366 100
367 20
368 10
369 400
370 100
371 20
372 10
373 400
374 400
375 20
376 20
377 20
378 400
379 100
380 10
381 400
382 20
383 10
384 400
385 200
386 20
387 10
388 400
389 200
390 100
391 20
392 20
393 20
394 10
395 400
396 400
397 100
398 20
399 20
400 20
401 20
402 10
403 400
404 200
405 100
406 400
407 400
408 20
409 400
410 200
411 20
412 20
413 20
414 10
415 400
416 400
417 20
418 20
419 10
420 400
421 400
422 20
423 20
424 20
425 20
426 400
427 100
428 200
429 100
430 20
431 20
432 20
433 20
434 400
435 100
436 20
437 20
438 20
439 10
440 200
441 20
442 20
443 20
444 20
445 10
446 200
447 100
448 20
449 20
450 20
451 20
452 400
453 200
454 20
455 20
456 400
457 200
458 400
459 400
460 20
461 400
462 100
463 20
464 20
465 20
466 400
467 20
468 200
469 100
470 20
471 20
472 20
473 20
474 200
475 100
DEPOT_SECTION
1
-1
EOF