SDVRP instances/custom_instances/p03_12_splitx10_0.sol
474 -9 11 13 12 10 250 249 248 252 251 312 314 311 313 310 32 33 -16 14 225 228 226 170 173 171 168 174 169 172 -18 209 212 208 210 422 423 420 419 421 424 -20 19 395 398 399 396 394 401 400 397 260 259 258 257 261 -22 338 341 337 342 361 360 362 53 54 -23 21 187 185 188 186 189 184 180 253 254 255 256 -24 28 26 25 27 29 30 31 379 377 378 343 345 344 346 -46 47 45 391 389 393 387 390 388 392 307 309 304 306 308 305 303 -51 52 380 414 415 -55 56 382 381 464 461 460 463 462 457 458 459 468 295 297 296 -78 165 166 164 167 61 59 58 57 60 62 66 64 67 65 63 68 444 440 439 442 443 441 -79 80 452 454 453 451 123 128 124 127 126 125 122 17 15 227 182 181 183 -82 84 86 81 85 83 406 407 405 383 386 -88 91 410 412 413 429 432 427 428 431 430 302 301 113 111 112 115 114 -92 89 87 90 447 448 445 449 450 446 72 71 70 69 273 276 272 275 274 -95 93 97 98 96 94 134 131 132 130 133 129 135 35 38 36 37 34 315 316 318 317 319 -100 103 104 102 101 99 409 408 411 136 139 137 138 -107 105 108 106 110 109 39 40 42 41 43 44 369 370 368 371 -116 121 119 117 120 118 155 157 156 -145 146 147 223 224 220 222 221 287 163 161 162 -153 151 154 150 152 148 149 270 266 267 269 271 268 351 349 350 348 347 -199 195 197 198 196 473 474 466 465 472 467 471 469 470 -205 5 4 8 194 193 73 75 74 77 76 49 48 50 211 -233 234 231 229 264 262 265 263 1 2 3 289 290 292 291 294 293 -235 232 230 159 160 158 374 372 375 376 373 320 325 321 324 322 323 -238 239 237 236 142 144 143 140 141 246 245 240 243 241 244 242 247 -278 279 280 277 281 282 284 283 -285 288 286 204 200 206 203 207 202 201 425 -331 332 334 336 335 333 214 219 213 217 215 216 218 340 339 -385 384 359 358 357 356 355 178 175 177 176 179 455 456 -403 402 404 365 364 363 366 367 352 354 353 416 417 418 -426 7 6 300 298 299 327 330 329 326 328 192 190 191 433 436 437 435 438 434 0 





OBJ=
3039.826
BEST_KNOWN=
0.000